p cnf 245 3262
1 2 3 4 5 6 7 0
8 9 10 11 12 13 14 0
15 16 17 18 19 20 21 0
22 23 24 25 26 27 28 0
29 30 31 32 33 34 35 0
36 37 38 39 40 41 42 0
43 44 45 46 47 48 49 0
50 51 52 53 54 55 56 0
57 58 59 60 61 62 63 0
64 65 66 67 68 69 70 0
71 72 73 74 75 76 77 0
78 79 80 81 82 83 84 0
85 86 87 88 89 90 91 0
92 93 94 95 96 97 98 0
99 100 101 102 103 104 105 0
106 107 108 109 110 111 112 0
113 114 115 116 117 118 119 0
120 121 122 123 124 125 126 0
127 128 129 130 131 132 133 0
134 135 136 137 138 139 140 0
141 142 143 144 145 146 147 0
148 149 150 151 152 153 154 0
155 156 157 158 159 160 161 0
162 163 164 165 166 167 168 0
169 170 171 172 173 174 175 0
176 177 178 179 180 181 182 0
183 184 185 186 187 188 189 0
190 191 192 193 194 195 196 0
197 198 199 200 201 202 203 0
204 205 206 207 208 209 210 0
211 212 213 214 215 216 217 0
218 219 220 221 222 223 224 0
225 226 227 228 229 230 231 0
232 233 234 235 236 237 238 0
239 240 241 242 243 244 245 0
-1 -2 0
-1 -3 0
-1 -4 0
-1 -5 0
-1 -6 0
-1 -7 0
-2 -3 0
-2 -4 0
-2 -5 0
-2 -6 0
-2 -7 0
-3 -4 0
-3 -5 0
-3 -6 0
-3 -7 0
-4 -5 0
-4 -6 0
-4 -7 0
-5 -6 0
-5 -7 0
-6 -7 0
-8 -9 0
-8 -10 0
-8 -11 0
-8 -12 0
-8 -13 0
-8 -14 0
-9 -10 0
-9 -11 0
-9 -12 0
-9 -13 0
-9 -14 0
-10 -11 0
-10 -12 0
-10 -13 0
-10 -14 0
-11 -12 0
-11 -13 0
-11 -14 0
-12 -13 0
-12 -14 0
-13 -14 0
-15 -16 0
-15 -17 0
-15 -18 0
-15 -19 0
-15 -20 0
-15 -21 0
-16 -17 0
-16 -18 0
-16 -19 0
-16 -20 0
-16 -21 0
-17 -18 0
-17 -19 0
-17 -20 0
-17 -21 0
-18 -19 0
-18 -20 0
-18 -21 0
-19 -20 0
-19 -21 0
-20 -21 0
-22 -23 0
-22 -24 0
-22 -25 0
-22 -26 0
-22 -27 0
-22 -28 0
-23 -24 0
-23 -25 0
-23 -26 0
-23 -27 0
-23 -28 0
-24 -25 0
-24 -26 0
-24 -27 0
-24 -28 0
-25 -26 0
-25 -27 0
-25 -28 0
-26 -27 0
-26 -28 0
-27 -28 0
-29 -30 0
-29 -31 0
-29 -32 0
-29 -33 0
-29 -34 0
-29 -35 0
-30 -31 0
-30 -32 0
-30 -33 0
-30 -34 0
-30 -35 0
-31 -32 0
-31 -33 0
-31 -34 0
-31 -35 0
-32 -33 0
-32 -34 0
-32 -35 0
-33 -34 0
-33 -35 0
-34 -35 0
-36 -37 0
-36 -38 0
-36 -39 0
-36 -40 0
-36 -41 0
-36 -42 0
-37 -38 0
-37 -39 0
-37 -40 0
-37 -41 0
-37 -42 0
-38 -39 0
-38 -40 0
-38 -41 0
-38 -42 0
-39 -40 0
-39 -41 0
-39 -42 0
-40 -41 0
-40 -42 0
-41 -42 0
-43 -44 0
-43 -45 0
-43 -46 0
-43 -47 0
-43 -48 0
-43 -49 0
-44 -45 0
-44 -46 0
-44 -47 0
-44 -48 0
-44 -49 0
-45 -46 0
-45 -47 0
-45 -48 0
-45 -49 0
-46 -47 0
-46 -48 0
-46 -49 0
-47 -48 0
-47 -49 0
-48 -49 0
-50 -51 0
-50 -52 0
-50 -53 0
-50 -54 0
-50 -55 0
-50 -56 0
-51 -52 0
-51 -53 0
-51 -54 0
-51 -55 0
-51 -56 0
-52 -53 0
-52 -54 0
-52 -55 0
-52 -56 0
-53 -54 0
-53 -55 0
-53 -56 0
-54 -55 0
-54 -56 0
-55 -56 0
-57 -58 0
-57 -59 0
-57 -60 0
-57 -61 0
-57 -62 0
-57 -63 0
-58 -59 0
-58 -60 0
-58 -61 0
-58 -62 0
-58 -63 0
-59 -60 0
-59 -61 0
-59 -62 0
-59 -63 0
-60 -61 0
-60 -62 0
-60 -63 0
-61 -62 0
-61 -63 0
-62 -63 0
-64 -65 0
-64 -66 0
-64 -67 0
-64 -68 0
-64 -69 0
-64 -70 0
-65 -66 0
-65 -67 0
-65 -68 0
-65 -69 0
-65 -70 0
-66 -67 0
-66 -68 0
-66 -69 0
-66 -70 0
-67 -68 0
-67 -69 0
-67 -70 0
-68 -69 0
-68 -70 0
-69 -70 0
-71 -72 0
-71 -73 0
-71 -74 0
-71 -75 0
-71 -76 0
-71 -77 0
-72 -73 0
-72 -74 0
-72 -75 0
-72 -76 0
-72 -77 0
-73 -74 0
-73 -75 0
-73 -76 0
-73 -77 0
-74 -75 0
-74 -76 0
-74 -77 0
-75 -76 0
-75 -77 0
-76 -77 0
-78 -79 0
-78 -80 0
-78 -81 0
-78 -82 0
-78 -83 0
-78 -84 0
-79 -80 0
-79 -81 0
-79 -82 0
-79 -83 0
-79 -84 0
-80 -81 0
-80 -82 0
-80 -83 0
-80 -84 0
-81 -82 0
-81 -83 0
-81 -84 0
-82 -83 0
-82 -84 0
-83 -84 0
-85 -86 0
-85 -87 0
-85 -88 0
-85 -89 0
-85 -90 0
-85 -91 0
-86 -87 0
-86 -88 0
-86 -89 0
-86 -90 0
-86 -91 0
-87 -88 0
-87 -89 0
-87 -90 0
-87 -91 0
-88 -89 0
-88 -90 0
-88 -91 0
-89 -90 0
-89 -91 0
-90 -91 0
-92 -93 0
-92 -94 0
-92 -95 0
-92 -96 0
-92 -97 0
-92 -98 0
-93 -94 0
-93 -95 0
-93 -96 0
-93 -97 0
-93 -98 0
-94 -95 0
-94 -96 0
-94 -97 0
-94 -98 0
-95 -96 0
-95 -97 0
-95 -98 0
-96 -97 0
-96 -98 0
-97 -98 0
-99 -100 0
-99 -101 0
-99 -102 0
-99 -103 0
-99 -104 0
-99 -105 0
-100 -101 0
-100 -102 0
-100 -103 0
-100 -104 0
-100 -105 0
-101 -102 0
-101 -103 0
-101 -104 0
-101 -105 0
-102 -103 0
-102 -104 0
-102 -105 0
-103 -104 0
-103 -105 0
-104 -105 0
-106 -107 0
-106 -108 0
-106 -109 0
-106 -110 0
-106 -111 0
-106 -112 0
-107 -108 0
-107 -109 0
-107 -110 0
-107 -111 0
-107 -112 0
-108 -109 0
-108 -110 0
-108 -111 0
-108 -112 0
-109 -110 0
-109 -111 0
-109 -112 0
-110 -111 0
-110 -112 0
-111 -112 0
-113 -114 0
-113 -115 0
-113 -116 0
-113 -117 0
-113 -118 0
-113 -119 0
-114 -115 0
-114 -116 0
-114 -117 0
-114 -118 0
-114 -119 0
-115 -116 0
-115 -117 0
-115 -118 0
-115 -119 0
-116 -117 0
-116 -118 0
-116 -119 0
-117 -118 0
-117 -119 0
-118 -119 0
-120 -121 0
-120 -122 0
-120 -123 0
-120 -124 0
-120 -125 0
-120 -126 0
-121 -122 0
-121 -123 0
-121 -124 0
-121 -125 0
-121 -126 0
-122 -123 0
-122 -124 0
-122 -125 0
-122 -126 0
-123 -124 0
-123 -125 0
-123 -126 0
-124 -125 0
-124 -126 0
-125 -126 0
-127 -128 0
-127 -129 0
-127 -130 0
-127 -131 0
-127 -132 0
-127 -133 0
-128 -129 0
-128 -130 0
-128 -131 0
-128 -132 0
-128 -133 0
-129 -130 0
-129 -131 0
-129 -132 0
-129 -133 0
-130 -131 0
-130 -132 0
-130 -133 0
-131 -132 0
-131 -133 0
-132 -133 0
-134 -135 0
-134 -136 0
-134 -137 0
-134 -138 0
-134 -139 0
-134 -140 0
-135 -136 0
-135 -137 0
-135 -138 0
-135 -139 0
-135 -140 0
-136 -137 0
-136 -138 0
-136 -139 0
-136 -140 0
-137 -138 0
-137 -139 0
-137 -140 0
-138 -139 0
-138 -140 0
-139 -140 0
-141 -142 0
-141 -143 0
-141 -144 0
-141 -145 0
-141 -146 0
-141 -147 0
-142 -143 0
-142 -144 0
-142 -145 0
-142 -146 0
-142 -147 0
-143 -144 0
-143 -145 0
-143 -146 0
-143 -147 0
-144 -145 0
-144 -146 0
-144 -147 0
-145 -146 0
-145 -147 0
-146 -147 0
-148 -149 0
-148 -150 0
-148 -151 0
-148 -152 0
-148 -153 0
-148 -154 0
-149 -150 0
-149 -151 0
-149 -152 0
-149 -153 0
-149 -154 0
-150 -151 0
-150 -152 0
-150 -153 0
-150 -154 0
-151 -152 0
-151 -153 0
-151 -154 0
-152 -153 0
-152 -154 0
-153 -154 0
-155 -156 0
-155 -157 0
-155 -158 0
-155 -159 0
-155 -160 0
-155 -161 0
-156 -157 0
-156 -158 0
-156 -159 0
-156 -160 0
-156 -161 0
-157 -158 0
-157 -159 0
-157 -160 0
-157 -161 0
-158 -159 0
-158 -160 0
-158 -161 0
-159 -160 0
-159 -161 0
-160 -161 0
-162 -163 0
-162 -164 0
-162 -165 0
-162 -166 0
-162 -167 0
-162 -168 0
-163 -164 0
-163 -165 0
-163 -166 0
-163 -167 0
-163 -168 0
-164 -165 0
-164 -166 0
-164 -167 0
-164 -168 0
-165 -166 0
-165 -167 0
-165 -168 0
-166 -167 0
-166 -168 0
-167 -168 0
-169 -170 0
-169 -171 0
-169 -172 0
-169 -173 0
-169 -174 0
-169 -175 0
-170 -171 0
-170 -172 0
-170 -173 0
-170 -174 0
-170 -175 0
-171 -172 0
-171 -173 0
-171 -174 0
-171 -175 0
-172 -173 0
-172 -174 0
-172 -175 0
-173 -174 0
-173 -175 0
-174 -175 0
-176 -177 0
-176 -178 0
-176 -179 0
-176 -180 0
-176 -181 0
-176 -182 0
-177 -178 0
-177 -179 0
-177 -180 0
-177 -181 0
-177 -182 0
-178 -179 0
-178 -180 0
-178 -181 0
-178 -182 0
-179 -180 0
-179 -181 0
-179 -182 0
-180 -181 0
-180 -182 0
-181 -182 0
-183 -184 0
-183 -185 0
-183 -186 0
-183 -187 0
-183 -188 0
-183 -189 0
-184 -185 0
-184 -186 0
-184 -187 0
-184 -188 0
-184 -189 0
-185 -186 0
-185 -187 0
-185 -188 0
-185 -189 0
-186 -187 0
-186 -188 0
-186 -189 0
-187 -188 0
-187 -189 0
-188 -189 0
-190 -191 0
-190 -192 0
-190 -193 0
-190 -194 0
-190 -195 0
-190 -196 0
-191 -192 0
-191 -193 0
-191 -194 0
-191 -195 0
-191 -196 0
-192 -193 0
-192 -194 0
-192 -195 0
-192 -196 0
-193 -194 0
-193 -195 0
-193 -196 0
-194 -195 0
-194 -196 0
-195 -196 0
-197 -198 0
-197 -199 0
-197 -200 0
-197 -201 0
-197 -202 0
-197 -203 0
-198 -199 0
-198 -200 0
-198 -201 0
-198 -202 0
-198 -203 0
-199 -200 0
-199 -201 0
-199 -202 0
-199 -203 0
-200 -201 0
-200 -202 0
-200 -203 0
-201 -202 0
-201 -203 0
-202 -203 0
-204 -205 0
-204 -206 0
-204 -207 0
-204 -208 0
-204 -209 0
-204 -210 0
-205 -206 0
-205 -207 0
-205 -208 0
-205 -209 0
-205 -210 0
-206 -207 0
-206 -208 0
-206 -209 0
-206 -210 0
-207 -208 0
-207 -209 0
-207 -210 0
-208 -209 0
-208 -210 0
-209 -210 0
-211 -212 0
-211 -213 0
-211 -214 0
-211 -215 0
-211 -216 0
-211 -217 0
-212 -213 0
-212 -214 0
-212 -215 0
-212 -216 0
-212 -217 0
-213 -214 0
-213 -215 0
-213 -216 0
-213 -217 0
-214 -215 0
-214 -216 0
-214 -217 0
-215 -216 0
-215 -217 0
-216 -217 0
-218 -219 0
-218 -220 0
-218 -221 0
-218 -222 0
-218 -223 0
-218 -224 0
-219 -220 0
-219 -221 0
-219 -222 0
-219 -223 0
-219 -224 0
-220 -221 0
-220 -222 0
-220 -223 0
-220 -224 0
-221 -222 0
-221 -223 0
-221 -224 0
-222 -223 0
-222 -224 0
-223 -224 0
-225 -226 0
-225 -227 0
-225 -228 0
-225 -229 0
-225 -230 0
-225 -231 0
-226 -227 0
-226 -228 0
-226 -229 0
-226 -230 0
-226 -231 0
-227 -228 0
-227 -229 0
-227 -230 0
-227 -231 0
-228 -229 0
-228 -230 0
-228 -231 0
-229 -230 0
-229 -231 0
-230 -231 0
-232 -233 0
-232 -234 0
-232 -235 0
-232 -236 0
-232 -237 0
-232 -238 0
-233 -234 0
-233 -235 0
-233 -236 0
-233 -237 0
-233 -238 0
-234 -235 0
-234 -236 0
-234 -237 0
-234 -238 0
-235 -236 0
-235 -237 0
-235 -238 0
-236 -237 0
-236 -238 0
-237 -238 0
-239 -240 0
-239 -241 0
-239 -242 0
-239 -243 0
-239 -244 0
-239 -245 0
-240 -241 0
-240 -242 0
-240 -243 0
-240 -244 0
-240 -245 0
-241 -242 0
-241 -243 0
-241 -244 0
-241 -245 0
-242 -243 0
-242 -244 0
-242 -245 0
-243 -244 0
-243 -245 0
-244 -245 0
-6 -13 0
-5 -13 0
-2 -10 0
-3 -14 0
-3 -10 0
-6 -11 0
-1 -14 0
-2 -12 0
-3 -13 0
-5 -11 0
-1 -13 0
-2 -13 0
-4 -11 0
-7 -9 0
-2 -15 0
-3 -20 0
-3 -19 0
-3 -17 0
-2 -21 0
-7 -19 0
-4 -15 0
-1 -20 0
-7 -16 0
-6 -16 0
-4 -18 0
-5 -21 0
-5 -20 0
-7 -15 0
-6 -43 0
-3 -45 0
-5 -44 0
-3 -43 0
-2 -47 0
-5 -43 0
-6 -48 0
-5 -47 0
-1 -49 0
-6 -47 0
-7 -47 0
-2 -43 0
-7 -43 0
-7 -44 0
-7 -90 0
-1 -89 0
-7 -85 0
-7 -89 0
-5 -87 0
-7 -86 0
-3 -87 0
-5 -85 0
-7 -88 0
-3 -91 0
-2 -89 0
-2 -85 0
-1 -86 0
-1 -85 0
-6 -105 0
-6 -100 0
-2 -101 0
-1 -105 0
-4 -99 0
-2 -103 0
-6 -102 0
-4 -101 0
-1 -101 0
-3 -105 0
-6 -104 0
-4 -105 0
-3 -101 0
-4 -104 0
-3 -195 0
-2 -192 0
-4 -190 0
-3 -193 0
-7 -196 0
-1 -192 0
-7 -190 0
-1 -191 0
-2 -191 0
-5 -190 0
-6 -192 0
-7 -194 0
-4 -194 0
-2 -193 0
-6 -206 0
-4 -209 0
-4 -205 0
-5 -206 0
-2 -204 0
-4 -207 0
-1 -206 0
-2 -209 0
-7 -208 0
-1 -209 0
-3 -204 0
-3 -207 0
-1 -205 0
-5 -205 0
-6 -214 0
-1 -215 0
-3 -216 0
-3 -213 0
-3 -217 0
-1 -217 0
-2 -217 0
-2 -214 0
-6 -213 0
-4 -217 0
-7 -214 0
-3 -212 0
-6 -216 0
-1 -212 0
-7 -223 0
-2 -222 0
-3 -222 0
-1 -224 0
-2 -220 0
-1 -221 0
-5 -218 0
-4 -220 0
-7 -219 0
-3 -219 0
-5 -223 0
-3 -218 0
-6 -221 0
-6 -220 0
-7 -237 0
-4 -238 0
-1 -232 0
-1 -234 0
-4 -232 0
-4 -235 0
-5 -238 0
-6 -238 0
-6 -236 0
-1 -233 0
-1 -237 0
-6 -235 0
-3 -233 0
-3 -238 0
-1 -240 0
-7 -241 0
-7 -240 0
-6 -241 0
-3 -244 0
-3 -240 0
-1 -242 0
-2 -243 0
-2 -241 0
-6 -239 0
-5 -241 0
-2 -239 0
-5 -242 0
-2 -244 0
-13 -49 0
-8 -46 0
-11 -49 0
-9 -47 0
-12 -48 0
-8 -44 0
-10 -44 0
-12 -45 0
-13 -47 0
-14 -45 0
-9 -43 0
-13 -46 0
-14 -43 0
-9 -46 0
-13 -56 0
-13 -54 0
-14 -50 0
-13 -52 0
-13 -53 0
-9 -56 0
-13 -55 0
-13 -51 0
-8 -53 0
-10 -56 0
-10 -50 0
-8 -56 0
-12 -51 0
-9 -52 0
-9 -97 0
-10 -94 0
-14 -97 0
-13 -97 0
-11 -92 0
-11 -94 0
-12 -96 0
-14 -93 0
-14 -96 0
-10 -98 0
-11 -98 0
-11 -96 0
-14 -94 0
-9 -96 0
-14 -140 0
-9 -136 0
-11 -139 0
-10 -137 0
-12 -139 0
-11 -138 0
-14 -134 0
-9 -135 0
-11 -136 0
-13 -140 0
-10 -138 0
-10 -139 0
-14 -135 0
-12 -140 0
-11 -163 0
-12 -162 0
-11 -164 0
-13 -164 0
-14 -164 0
-12 -166 0
-10 -162 0
-9 -165 0
-13 -168 0
-13 -162 0
-12 -165 0
-8 -166 0
-9 -167 0
-11 -165 0
-9 -221 0
-14 -224 0
-8 -223 0
-8 -218 0
-13 -218 0
-12 -224 0
-9 -224 0
-14 -219 0
-8 -221 0
-10 -219 0
-12 -222 0
-9 -223 0
-12 -219 0
-14 -221 0
-11 -240 0
-11 -245 0
-14 -240 0
-12 -242 0
-10 -240 0
-11 -239 0
-12 -240 0
-8 -241 0
-9 -243 0
-11 -241 0
-12 -241 0
-10 -245 0
-13 -243 0
-9 -241 0
-15 -31 0
-21 -29 0
-17 -32 0
-16 -35 0
-20 -33 0
-21 -30 0
-15 -30 0
-21 -34 0
-16 -33 0
-15 -32 0
-18 -34 0
-18 -35 0
-18 -32 0
-18 -30 0
-16 -49 0
-17 -47 0
-18 -48 0
-16 -43 0
-20 -49 0
-18 -44 0
-19 -43 0
-16 -47 0
-18 -45 0
-21 -49 0
-16 -45 0
-21 -45 0
-21 -47 0
-18 -47 0
-18 -77 0
-17 -71 0
-15 -77 0
-21 -72 0
-16 -76 0
-16 -73 0
-17 -74 0
-20 -73 0
-21 -77 0
-17 -76 0
-16 -72 0
-18 -74 0
-21 -75 0
-20 -75 0
-16 -85 0
-17 -85 0
-18 -90 0
-16 -89 0
-18 -85 0
-16 -86 0
-20 -91 0
-21 -89 0
-20 -89 0
-15 -90 0
-20 -87 0
-18 -89 0
-18 -91 0
-15 -86 0
-20 -98 0
-19 -94 0
-19 -92 0
-17 -96 0
-15 -98 0
-16 -93 0
-15 -93 0
-20 -92 0
-17 -92 0
-18 -96 0
-18 -95 0
-17 -93 0
-19 -93 0
-16 -95 0
-15 -111 0
-16 -107 0
-19 -106 0
-19 -111 0
-16 -108 0
-18 -109 0
-21 -110 0
-21 -112 0
-16 -112 0
-15 -112 0
-18 -107 0
-15 -107 0
-20 -110 0
-18 -112 0
-18 -130 0
-21 -127 0
-16 -128 0
-17 -132 0
-17 -129 0
-21 -133 0
-21 -132 0
-19 -132 0
-20 -127 0
-17 -127 0
-21 -129 0
-16 -133 0
-19 -133 0
-21 -131 0
-20 -175 0
-18 -170 0
-17 -173 0
-21 -173 0
-17 -172 0
-19 -175 0
-16 -170 0
-19 -174 0
-21 -174 0
-17 -170 0
-20 -173 0
-20 -171 0
-17 -175 0
-15 -169 0
-21 -189 0
-20 -186 0
-16 -185 0
-20 -188 0
-21 -183 0
-15 -183 0
-19 -186 0
-17 -183 0
-16 -186 0
-17 -189 0
-18 -186 0
-21 -187 0
-18 -184 0
-17 -187 0
-24 -55 0
-26 -52 0
-23 -50 0
-27 -54 0
-22 -53 0
-28 -51 0
-28 -53 0
-28 -55 0
-28 -54 0
-25 -52 0
-25 -53 0
-26 -53 0
-25 -51 0
-27 -53 0
-22 -64 0
-24 -64 0
-22 -66 0
-27 -66 0
-27 -67 0
-28 -67 0
-24 -65 0
-27 -64 0
-27 -70 0
-27 -69 0
-24 -66 0
-24 -69 0
-23 -66 0
-23 -68 0
-28 -79 0
-22 -78 0
-27 -80 0
-25 -82 0
-28 -84 0
-25 -80 0
-23 -83 0
-24 -80 0
-28 -78 0
-24 -81 0
-25 -81 0
-27 -81 0
-26 -84 0
-23 -84 0
-25 -97 0
-25 -93 0
-22 -94 0
-27 -97 0
-26 -95 0
-27 -92 0
-27 -93 0
-26 -94 0
-24 -94 0
-23 -95 0
-26 -92 0
-26 -93 0
-27 -98 0
-28 -93 0
-24 -134 0
-22 -137 0
-23 -136 0
-26 -140 0
-24 -136 0
-26 -138 0
-24 -137 0
-25 -134 0
-28 -135 0
-23 -140 0
-24 -138 0
-22 -135 0
-27 -138 0
-27 -140 0
-27 -170 0
-27 -169 0
-28 -173 0
-22 -174 0
-24 -169 0
-23 -170 0
-26 -172 0
-23 -169 0
-22 -171 0
-22 -172 0
-25 -171 0
-27 -173 0
-25 -170 0
-22 -173 0
-23 -201 0
-25 -203 0
-22 -200 0
-27 -198 0
-26 -199 0
-28 -197 0
-26 -200 0
-25 -199 0
-25 -201 0
-26 -198 0
-27 -197 0
-23 -203 0
-28 -199 0
-24 -200 0
-22 -214 0
-23 -214 0
-24 -216 0
-27 -211 0
-24 -212 0
-22 -212 0
-25 -216 0
-24 -211 0
-22 -213 0
-28 -213 0
-22 -215 0
-24 -215 0
-27 -217 0
-27 -216 0
-29 -88 0
-33 -91 0
-34 -91 0
-33 -88 0
-35 -86 0
-32 -86 0
-31 -90 0
-29 -87 0
-35 -90 0
-31 -89 0
-32 -91 0
-35 -85 0
-30 -91 0
-31 -87 0
-29 -133 0
-29 -127 0
-33 -128 0
-30 -127 0
-31 -130 0
-35 -130 0
-30 -131 0
-34 -130 0
-31 -131 0
-33 -129 0
-33 -132 0
-33 -130 0
-31 -133 0
-35 -129 0
-29 -170 0
-32 -172 0
-32 -170 0
-33 -172 0
-29 -174 0
-34 -173 0
-30 -173 0
-30 -172 0
-35 -170 0
-31 -173 0
-29 -171 0
-33 -170 0
-31 -175 0
-31 -170 0
-32 -200 0
-34 -200 0
-31 -203 0
-30 -203 0
-31 -199 0
-32 -199 0
-30 -198 0
-35 -199 0
-30 -202 0
-34 -198 0
-35 -197 0
-31 -201 0
-33 -201 0
-32 -202 0
-30 -217 0
-34 -212 0
-34 -216 0
-32 -215 0
-35 -217 0
-31 -217 0
-33 -211 0
-35 -212 0
-33 -216 0
-31 -214 0
-32 -217 0
-34 -214 0
-32 -213 0
-31 -211 0
-40 -51 0
-38 -50 0
-39 -50 0
-37 -56 0
-37 -50 0
-38 -54 0
-40 -55 0
-41 -55 0
-40 -50 0
-36 -50 0
-40 -54 0
-40 -53 0
-38 -56 0
-40 -52 0
-42 -141 0
-38 -144 0
-37 -147 0
-36 -141 0
-42 -144 0
-40 -143 0
-41 -142 0
-41 -147 0
-42 -145 0
-42 -146 0
-41 -145 0
-38 -145 0
-42 -142 0
-39 -144 0
-41 -164 0
-42 -164 0
-38 -168 0
-36 -166 0
-37 -165 0
-36 -164 0
-42 -168 0
-41 -163 0
-39 -165 0
-38 -165 0
-40 -163 0
-41 -165 0
-39 -163 0
-42 -162 0
-39 -172 0
-42 -172 0
-38 -175 0
-38 -169 0
-41 -169 0
-41 -173 0
-39 -173 0
-36 -169 0
-36 -171 0
-39 -169 0
-39 -170 0
-36 -173 0
-39 -175 0
-41 -172 0
-38 -190 0
-42 -191 0
-37 -191 0
-41 -193 0
-40 -190 0
-41 -190 0
-40 -192 0
-41 -196 0
-37 -194 0
-36 -192 0
-42 -190 0
-38 -196 0
-39 -195 0
-36 -193 0
-38 -205 0
-39 -207 0
-38 -208 0
-38 -204 0
-41 -204 0
-39 -205 0
-40 -205 0
-37 -207 0
-41 -207 0
-40 -204 0
-42 -205 0
-37 -206 0
-38 -210 0
-37 -209 0
-37 -214 0
-37 -216 0
-42 -215 0
-41 -212 0
-36 -216 0
-38 -217 0
-42 -214 0
-41 -214 0
-38 -216 0
-38 -214 0
-41 -213 0
-36 -214 0
-41 -217 0
-41 -215 0
-45 -50 0
-46 -55 0
-43 -51 0
-49 -51 0
-43 -55 0
-44 -54 0
-48 -50 0
-45 -55 0
-43 -54 0
-44 -53 0
-49 -53 0
-48 -51 0
-46 -50 0
-49 -50 0
-48 -57 0
-43 -58 0
-44 -61 0
-46 -60 0
-45 -63 0
-45 -58 0
-47 -58 0
-43 -63 0
-49 -61 0
-43 -62 0
-49 -57 0
-46 -58 0
-48 -60 0
-49 -59 0
-46 -79 0
-43 -78 0
-43 -79 0
-49 -84 0
-49 -82 0
-47 -84 0
-47 -79 0
-43 -83 0
-45 -84 0
-47 -83 0
-48 -78 0
-43 -84 0
-48 -82 0
-46 -82 0
-49 -120 0
-44 -120 0
-47 -120 0
-46 -123 0
-48 -125 0
-47 -124 0
-44 -125 0
-43 -124 0
-43 -122 0
-48 -123 0
-46 -126 0
-49 -122 0
-46 -122 0
-45 -123 0
-46 -127 0
-46 -133 0
-43 -131 0
-44 -129 0
-46 -131 0
-44 -133 0
-45 -131 0
-45 -132 0
-45 -128 0
-43 -129 0
-44 -128 0
-47 -128 0
-49 -128 0
-43 -127 0
-49 -162 0
-46 -167 0
-45 -165 0
-49 -165 0
-46 -168 0
-48 -167 0
-48 -164 0
-49 -168 0
-47 -163 0
-48 -165 0
-46 -162 0
-43 -167 0
-44 -163 0
-43 -168 0
-47 -172 0
-43 -169 0
-43 -171 0
-43 -174 0
-43 -175 0
-46 -169 0
-45 -175 0
-47 -174 0
-49 -170 0
-43 -172 0
-45 -174 0
-49 -169 0
-48 -175 0
-44 -174 0
-44 -204 0
-46 -207 0
-43 -209 0
-48 -206 0
-46 -205 0
-45 -206 0
-48 -205 0
-45 -208 0
-49 -209 0
-44 -208 0
-47 -209 0
-45 -205 0
-46 -210 0
-47 -204 0
-49 -232 0
-47 -234 0
-49 -233 0
-46 -232 0
-43 -233 0
-49 -238 0
-45 -236 0
-46 -237 0
-45 -232 0
-45 -238 0
-43 -235 0
-46 -234 0
-48 -233 0
-44 -238 0
-48 -244 0
-45 -242 0
-49 -240 0
-49 -239 0
-47 -242 0
-43 -243 0
-43 -245 0
-48 -242 0
-48 -243 0
-48 -240 0
-45 -243 0
-49 -245 0
-46 -243 0
-48 -239 0
-53 -62 0
-56 -60 0
-55 -60 0
-51 -61 0
-53 -61 0
-52 -59 0
-54 -62 0
-56 -62 0
-53 -60 0
-52 -57 0
-55 -61 0
-51 -63 0
-54 -60 0
-53 -57 0
-52 -104 0
-51 -104 0
-53 -105 0
-54 -102 0
-54 -99 0
-52 -103 0
-56 -104 0
-53 -102 0
-53 -101 0
-56 -105 0
-55 -102 0
-54 -100 0
-54 -105 0
-50 -104 0
-52 -181 0
-55 -177 0
-52 -180 0
-51 -177 0
-51 -181 0
-50 -181 0
-53 -180 0
-56 -182 0
-56 -176 0
-55 -181 0
-54 -180 0
-53 -176 0
-51 -179 0
-54 -181 0
-52 -192 0
-53 -194 0
-51 -191 0
-53 -196 0
-56 -196 0
-54 -191 0
-50 -194 0
-50 -190 0
-56 -192 0
-56 -191 0
-51 -193 0
-55 -194 0
-51 -190 0
-51 -192 0
-51 -208 0
-54 -209 0
-55 -208 0
-52 -207 0
-56 -205 0
-54 -204 0
-53 -210 0
-50 -207 0
-53 -205 0
-50 -206 0
-55 -204 0
-55 -207 0
-53 -206 0
-50 -204 0
-50 -232 0
-52 -238 0
-56 -236 0
-52 -234 0
-55 -233 0
-53 -236 0
-56 -237 0
-53 -238 0
-53 -233 0
-54 -234 0
-51 -237 0
-50 -234 0
-52 -233 0
-56 -235 0
-56 -241 0
-56 -239 0
-50 -242 0
-50 -240 0
-50 -241 0
-51 -240 0
-51 -241 0
-53 -242 0
-51 -239 0
-54 -245 0
-54 -240 0
-53 -243 0
-50 -239 0
-55 -245 0
-63 -100 0
-63 -104 0
-61 -105 0
-63 -103 0
-61 -102 0
-57 -103 0
-62 -104 0
-58 -103 0
-57 -100 0
-62 -100 0
-59 -104 0
-59 -102 0
-58 -104 0
-58 -99 0
-59 -111 0
-62 -110 0
-63 -110 0
-61 -111 0
-57 -107 0
-62 -107 0
-60 -110 0
-62 -112 0
-62 -109 0
-63 -106 0
-60 -111 0
-57 -106 0
-63 -108 0
-57 -110 0
-58 -116 0
-63 -117 0
-60 -113 0
-61 -115 0
-59 -114 0
-61 -119 0
-63 -114 0
-62 -115 0
-61 -116 0
-59 -116 0
-57 -115 0
-60 -114 0
-63 -113 0
-57 -117 0
-61 -133 0
-59 -127 0
-63 -131 0
-61 -127 0
-63 -127 0
-63 -128 0
-58 -131 0
-58 -128 0
-60 -130 0
-63 -130 0
-57 -129 0
-63 -133 0
-59 -132 0
-58 -132 0
-57 -140 0
-57 -136 0
-62 -139 0
-62 -134 0
-58 -135 0
-63 -135 0
-58 -137 0
-63 -140 0
-57 -138 0
-59 -138 0
-61 -138 0
-63 -138 0
-59 -136 0
-60 -134 0
-61 -179 0
-62 -177 0
-58 -177 0
-59 -182 0
-60 -182 0
-60 -178 0
-57 -176 0
-57 -180 0
-59 -181 0
-58 -179 0
-62 -178 0
-58 -181 0
-58 -180 0
-60 -177 0
-62 -217 0
-63 -216 0
-58 -217 0
-63 -213 0
-62 -212 0
-59 -215 0
-59 -217 0
-62 -215 0
-61 -213 0
-58 -211 0
-62 -211 0
-57 -217 0
-60 -211 0
-58 -213 0
-66 -77 0
-69 -71 0
-67 -73 0
-65 -77 0
-64 -72 0
-66 -75 0
-68 -75 0
-66 -76 0
-70 -76 0
-68 -71 0
-65 -72 0
-69 -77 0
-66 -72 0
-69 -73 0
-64 -82 0
-66 -84 0
-70 -80 0
-70 -79 0
-70 -84 0
-66 -82 0
-70 -82 0
-68 -80 0
-68 -78 0
-65 -80 0
-68 -82 0
-66 -80 0
-68 -79 0
-64 -83 0
-65 -105 0
-65 -100 0
-70 -101 0
-65 -99 0
-65 -104 0
-67 -100 0
-64 -101 0
-64 -105 0
-69 -102 0
-67 -105 0
-67 -99 0
-68 -104 0
-69 -99 0
-66 -101 0
-69 -111 0
-69 -108 0
-64 -108 0
-68 -111 0
-65 -107 0
-65 -106 0
-67 -109 0
-68 -110 0
-70 -112 0
-66 -108 0
-66 -109 0
-65 -111 0
-64 -112 0
-64 -106 0
-65 -117 0
-69 -117 0
-69 -116 0
-70 -119 0
-66 -114 0
-67 -116 0
-70 -113 0
-70 -116 0
-70 -118 0
-68 -116 0
-64 -116 0
-65 -119 0
-64 -113 0
-64 -117 0
-70 -123 0
-65 -124 0
-67 -121 0
-68 -121 0
-68 -123 0
-67 -122 0
-67 -120 0
-66 -126 0
-68 -125 0
-65 -121 0
-65 -126 0
-69 -125 0
-69 -121 0
-69 -124 0
-66 -151 0
-66 -150 0
-70 -153 0
-65 -153 0
-69 -151 0
-68 -154 0
-70 -152 0
-64 -152 0
-69 -153 0
-67 -154 0
-69 -152 0
-67 -148 0
-65 -150 0
-66 -154 0
-64 -160 0
-69 -158 0
-64 -161 0
-70 -155 0
-65 -155 0
-69 -160 0
-70 -159 0
-70 -161 0
-66 -156 0
-66 -159 0
-67 -158 0
-66 -158 0
-68 -156 0
-65 -160 0
-64 -178 0
-68 -181 0
-65 -179 0
-69 -181 0
-67 -179 0
-65 -176 0
-68 -182 0
-65 -178 0
-66 -180 0
-66 -181 0
-64 -182 0
-64 -177 0
-69 -179 0
-70 -176 0
-69 -213 0
-68 -212 0
-68 -214 0
-69 -211 0
-64 -214 0
-67 -216 0
-68 -211 0
-64 -211 0
-69 -217 0
-66 -216 0
-67 -213 0
-64 -217 0
-64 -215 0
-66 -215 0
-65 -222 0
-67 -218 0
-69 -223 0
-66 -221 0
-68 -221 0
-70 -218 0
-64 -224 0
-68 -218 0
-69 -221 0
-65 -218 0
-67 -224 0
-70 -224 0
-66 -223 0
-64 -220 0
-64 -234 0
-69 -235 0
-66 -235 0
-68 -236 0
-68 -237 0
-70 -235 0
-67 -232 0
-68 -232 0
-70 -233 0
-67 -234 0
-70 -237 0
-70 -236 0
-65 -237 0
-70 -234 0
-77 -82 0
-75 -81 0
-72 -83 0
-72 -80 0
-74 -79 0
-75 -83 0
-77 -80 0
-72 -84 0
-72 -78 0
-75 -79 0
-76 -79 0
-71 -84 0
-73 -78 0
-74 -82 0
-77 -122 0
-76 -126 0
-73 -124 0
-74 -121 0
-73 -122 0
-74 -123 0
-75 -124 0
-72 -121 0
-76 -121 0
-71 -123 0
-71 -122 0
-73 -120 0
-74 -124 0
-74 -122 0
-71 -140 0
-76 -140 0
-73 -139 0
-73 -136 0
-72 -134 0
-77 -140 0
-72 -135 0
-76 -135 0
-74 -137 0
-76 -139 0
-75 -137 0
-77 -135 0
-76 -137 0
-77 -139 0
-77 -149 0
-72 -154 0
-74 -148 0
-71 -152 0
-76 -151 0
-77 -154 0
-73 -150 0
-75 -152 0
-74 -154 0
-74 -152 0
-75 -149 0
-73 -152 0
-74 -151 0
-72 -149 0
-76 -168 0
-71 -163 0
-75 -164 0
-75 -167 0
-75 -163 0
-71 -167 0
-76 -162 0
-72 -167 0
-71 -164 0
-77 -165 0
-75 -168 0
-73 -162 0
-73 -167 0
-72 -166 0
-75 -173 0
-72 -170 0
-76 -172 0
-76 -173 0
-73 -169 0
-77 -175 0
-75 -169 0
-76 -175 0
-73 -175 0
-75 -175 0
-73 -174 0
-75 -171 0
-74 -175 0
-77 -169 0
-72 -180 0
-75 -179 0
-71 -180 0
-76 -176 0
-73 -178 0
-75 -180 0
-77 -178 0
-77 -179 0
-74 -177 0
-76 -177 0
-73 -179 0
-71 -181 0
-76 -179 0
-75 -176 0
-76 -198 0
-74 -198 0
-71 -202 0
-75 -201 0
-74 -202 0
-72 -202 0
-73 -197 0
-72 -198 0
-74 -203 0
-77 -197 0
-71 -198 0
-77 -198 0
-72 -199 0
-76 -203 0
-75 -208 0
-75 -206 0
-76 -206 0
-74 -209 0
-75 -204 0
-74 -206 0
-72 -207 0
-75 -207 0
-74 -208 0
-71 -209 0
-71 -210 0
-73 -207 0
-71 -208 0
-76 -205 0
-77 -213 0
-73 -215 0
-74 -213 0
-74 -212 0
-74 -215 0
-72 -216 0
-75 -213 0
-76 -214 0
-75 -215 0
-72 -214 0
-71 -215 0
-72 -217 0
-73 -217 0
-74 -214 0
-77 -220 0
-72 -218 0
-75 -223 0
-75 -220 0
-73 -224 0
-74 -223 0
-75 -221 0
-75 -219 0
-72 -221 0
-76 -219 0
-74 -219 0
-71 -218 0
-72 -223 0
-74 -218 0
-72 -231 0
-76 -231 0
-71 -231 0
-77 -231 0
-77 -229 0
-73 -228 0
-74 -226 0
-76 -229 0
-74 -228 0
-76 -228 0
-72 -228 0
-73 -225 0
-76 -225 0
-75 -230 0
-77 -234 0
-75 -238 0
-77 -238 0
-77 -233 0
-72 -237 0
-73 -234 0
-75 -233 0
-76 -234 0
-72 -238 0
-75 -237 0
-74 -238 0
-74 -237 0
-73 -237 0
-74 -236 0
-81 -91 0
-78 -86 0
-81 -86 0
-82 -91 0
-84 -89 0
-79 -88 0
-80 -87 0
-83 -89 0
-82 -87 0
-83 -85 0
-78 -91 0
-82 -86 0
-81 -87 0
-78 -90 0
-82 -96 0
-79 -98 0
-81 -93 0
-78 -95 0
-79 -96 0
-80 -95 0
-83 -98 0
-82 -94 0
-83 -96 0
-78 -94 0
-83 -94 0
-84 -94 0
-84 -93 0
-79 -97 0
-83 -103 0
-83 -101 0
-78 -99 0
-84 -100 0
-82 -105 0
-82 -102 0
-83 -102 0
-82 -99 0
-80 -99 0
-79 -103 0
-79 -100 0
-84 -104 0
-84 -102 0
-81 -102 0
-84 -110 0
-79 -112 0
-82 -109 0
-78 -111 0
-80 -111 0
-79 -106 0
-83 -112 0
-82 -106 0
-82 -108 0
-81 -110 0
-78 -108 0
-79 -108 0
-79 -110 0
-80 -110 0
-83 -132 0
-82 -127 0
-84 -131 0
-83 -131 0
-79 -133 0
-80 -132 0
-82 -130 0
-78 -129 0
-83 -133 0
-84 -128 0
-82 -128 0
-79 -131 0
-81 -132 0
-80 -130 0
-81 -138 0
-84 -136 0
-80 -138 0
-78 -136 0
-80 -139 0
-81 -134 0
-79 -137 0
-82 -137 0
-79 -140 0
-80 -140 0
-78 -139 0
-84 -135 0
-78 -140 0
-80 -136 0
-79 -149 0
-82 -149 0
-84 -148 0
-78 -153 0
-78 -154 0
-84 -151 0
-82 -148 0
-84 -149 0
-81 -148 0
-81 -153 0
-81 -151 0
-83 -152 0
-80 -148 0
-78 -149 0
-81 -157 0
-84 -157 0
-79 -157 0
-83 -155 0
-78 -160 0
-81 -156 0
-78 -158 0
-78 -155 0
-83 -158 0
-82 -155 0
-83 -156 0
-81 -159 0
-81 -160 0
-82 -159 0
-81 -173 0
-81 -171 0
-79 -175 0
-84 -170 0
-80 -169 0
-79 -170 0
-81 -172 0
-78 -170 0
-78 -171 0
-83 -174 0
-81 -170 0
-81 -175 0
-84 -171 0
-82 -171 0
-80 -177 0
-79 -178 0
-82 -180 0
-80 -178 0
-79 -179 0
-79 -181 0
-83 -177 0
-78 -179 0
-79 -177 0
-81 -176 0
-84 -182 0
-81 -180 0
-78 -178 0
-79 -180 0
-86 -125 0
-91 -125 0
-89 -122 0
-87 -125 0
-87 -122 0
-85 -126 0
-87 -126 0
-90 -121 0
-85 -124 0
-89 -120 0
-86 -121 0
-89 -124 0
-88 -124 0
-87 -121 0
-86 -132 0
-90 -129 0
-86 -130 0
-88 -131 0
-85 -127 0
-85 -133 0
-85 -131 0
-86 -129 0
-89 -133 0
-88 -132 0
-91 -127 0
-87 -132 0
-85 -128 0
-88 -128 0
-90 -151 0
-88 -149 0
-90 -150 0
-85 -153 0
-87 -148 0
-89 -148 0
-89 -151 0
-85 -151 0
-90 -153 0
-86 -152 0
-89 -150 0
-86 -154 0
-91 -150 0
-91 -154 0
-88 -160 0
-88 -156 0
-87 -156 0
-87 -161 0
-89 -160 0
-85 -158 0
-85 -157 0
-91 -159 0
-91 -160 0
-90 -155 0
-85 -161 0
-90 -158 0
-90 -160 0
-85 -160 0
-85 -180 0
-87 -178 0
-90 -180 0
-89 -182 0
-89 -181 0
-91 -181 0
-91 -180 0
-86 -178 0
-90 -178 0
-85 -178 0
-88 -177 0
-91 -178 0
-90 -181 0
-87 -179 0
-90 -186 0
-87 -188 0
-91 -189 0
-90 -183 0
-87 -183 0
-86 -189 0
-85 -189 0
-90 -187 0
-91 -184 0
-85 -187 0
-86 -183 0
-89 -189 0
-89 -184 0
-86 -184 0
-86 -222 0
-87 -220 0
-87 -221 0
-91 -223 0
-85 -219 0
-85 -220 0
-89 -223 0
-91 -222 0
-85 -224 0
-91 -218 0
-87 -218 0
-88 -219 0
-88 -218 0
-91 -224 0
-87 -245 0
-91 -245 0
-90 -245 0
-91 -243 0
-90 -244 0
-85 -244 0
-85 -243 0
-86 -242 0
-90 -240 0
-87 -240 0
-91 -244 0
-88 -243 0
-91 -240 0
-88 -245 0
-93 -107 0
-93 -108 0
-93 -109 0
-97 -108 0
-98 -106 0
-92 -111 0
-96 -108 0
-93 -106 0
-92 -112 0
-98 -111 0
-96 -109 0
-96 -111 0
-95 -110 0
-97 -107 0
-94 -128 0
-94 -129 0
-93 -130 0
-95 -131 0
-92 -129 0
-98 -128 0
-92 -127 0
-93 -131 0
-98 -127 0
-93 -133 0
-96 -133 0
-95 -133 0
-93 -129 0
-97 -133 0
-92 -150 0
-97 -149 0
-98 -149 0
-97 -152 0
-95 -152 0
-96 -151 0
-92 -148 0
-92 -154 0
-94 -152 0
-92 -153 0
-95 -150 0
-93 -152 0
-95 -153 0
-96 -150 0
-95 -166 0
-94 -163 0
-94 -167 0
-92 -162 0
-93 -164 0
-96 -167 0
-98 -167 0
-95 -164 0
-98 -168 0
-93 -163 0
-94 -162 0
-94 -168 0
-97 -167 0
-94 -165 0
-97 -172 0
-98 -169 0
-95 -173 0
-93 -174 0
-94 -175 0
-98 -173 0
-95 -170 0
-96 -173 0
-94 -172 0
-97 -169 0
-96 -171 0
-93 -169 0
-98 -172 0
-94 -169 0
-98 -181 0
-92 -176 0
-94 -177 0
-93 -180 0
-96 -181 0
-95 -182 0
-95 -180 0
-95 -176 0
-93 -179 0
-96 -182 0
-94 -182 0
-93 -176 0
-93 -177 0
-92 -182 0
-94 -203 0
-98 -200 0
-98 -201 0
-96 -199 0
-92 -201 0
-97 -199 0
-96 -202 0
-98 -199 0
-94 -201 0
-95 -201 0
-95 -202 0
-93 -202 0
-94 -202 0
-94 -197 0
-92 -204 0
-98 -204 0
-96 -205 0
-94 -206 0
-93 -208 0
-94 -204 0
-97 -210 0
-94 -207 0
-96 -204 0
-94 -209 0
-98 -208 0
-93 -207 0
-94 -205 0
-94 -208 0
-93 -240 0
-94 -244 0
-93 -244 0
-97 -243 0
-97 -239 0
-95 -239 0
-98 -245 0
-93 -239 0
-92 -243 0
-96 -241 0
-97 -241 0
-96 -243 0
-92 -244 0
-92 -242 0
-104 -120 0
-103 -121 0
-102 -122 0
-100 -126 0
-102 -126 0
-103 -126 0
-105 -123 0
-103 -120 0
-100 -124 0
-101 -122 0
-99 -121 0
-104 -125 0
-104 -126 0
-105 -120 0
-106 -181 0
-107 -177 0
-106 -182 0
-109 -182 0
-111 -176 0
-106 -179 0
-109 -176 0
-107 -176 0
-107 -182 0
-111 -179 0
-107 -178 0
-108 -177 0
-108 -176 0
-111 -178 0
-108 -209 0
-111 -204 0
-110 -207 0
-109 -208 0
-111 -208 0
-109 -207 0
-110 -206 0
-108 -204 0
-106 -206 0
-108 -207 0
-111 -206 0
-112 -206 0
-108 -208 0
-111 -205 0
-109 -211 0
-108 -211 0
-108 -217 0
-109 -216 0
-111 -214 0
-112 -215 0
-112 -217 0
-110 -217 0
-109 -213 0
-110 -212 0
-110 -215 0
-109 -215 0
-106 -215 0
-106 -211 0
-115 -129 0
-118 -133 0
-114 -127 0
-119 -132 0
-116 -128 0
-113 -132 0
-116 -127 0
-117 -128 0
-117 -127 0
-118 -128 0
-114 -133 0
-117 -129 0
-118 -131 0
-113 -133 0
-113 -149 0
-119 -151 0
-114 -149 0
-118 -152 0
-114 -152 0
-119 -149 0
-117 -148 0
-115 -154 0
-115 -152 0
-119 -150 0
-113 -151 0
-118 -148 0
-114 -153 0
-118 -151 0
-117 -155 0
-114 -157 0
-113 -160 0
-119 -156 0
-113 -155 0
-117 -159 0
-116 -156 0
-118 -156 0
-116 -161 0
-115 -156 0
-114 -156 0
-119 -159 0
-114 -160 0
-114 -161 0
-119 -166 0
-113 -168 0
-116 -167 0
-115 -165 0
-113 -163 0
-115 -162 0
-113 -167 0
-117 -162 0
-114 -167 0
-116 -168 0
-115 -167 0
-113 -164 0
-117 -164 0
-118 -165 0
-118 -171 0
-115 -174 0
-113 -171 0
-116 -173 0
-117 -169 0
-115 -173 0
-117 -173 0
-114 -174 0
-118 -172 0
-115 -169 0
-118 -169 0
-114 -170 0
-117 -171 0
-115 -170 0
-119 -188 0
-117 -183 0
-118 -188 0
-116 -189 0
-114 -187 0
-119 -186 0
-116 -188 0
-116 -184 0
-115 -183 0
-116 -183 0
-113 -187 0
-117 -184 0
-115 -187 0
-114 -185 0
-119 -208 0
-118 -209 0
-118 -207 0
-117 -207 0
-117 -205 0
-113 -207 0
-116 -205 0
-118 -210 0
-115 -205 0
-117 -210 0
-117 -204 0
-117 -209 0
-114 -204 0
-116 -207 0
-119 -236 0
-113 -233 0
-119 -233 0
-114 -234 0
-117 -236 0
-118 -237 0
-115 -233 0
-117 -234 0
-119 -232 0
-116 -238 0
-115 -237 0
-114 -236 0
-116 -236 0
-113 -236 0
-125 -132 0
-126 -128 0
-122 -128 0
-121 -133 0
-124 -129 0
-122 -130 0
-126 -127 0
-126 -131 0
-121 -130 0
-125 -130 0
-126 -133 0
-122 -133 0
-120 -133 0
-124 -127 0
-125 -153 0
-124 -148 0
-126 -153 0
-123 -151 0
-121 -148 0
-125 -154 0
-125 -150 0
-123 -153 0
-121 -151 0
-122 -151 0
-126 -152 0
-121 -154 0
-123 -154 0
-126 -148 0
-125 -161 0
-126 -156 0
-120 -158 0
-126 -158 0
-123 -161 0
-122 -157 0
-120 -156 0
-120 -159 0
-124 -157 0
-126 -160 0
-124 -160 0
-123 -155 0
-125 -158 0
-121 -160 0
-122 -234 0
-126 -236 0
-121 -238 0
-122 -233 0
-122 -232 0
-120 -233 0
-120 -237 0
-125 -233 0
-120 -238 0
-122 -238 0
-123 -238 0
-123 -235 0
-121 -233 0
-122 -237 0
-132 -174 0
-129 -170 0
-131 -171 0
-130 -174 0
-128 -173 0
-129 -174 0
-133 -174 0
-129 -172 0
-133 -169 0
-127 -171 0
-133 -172 0
-132 -175 0
-131 -174 0
-129 -173 0
-129 -218 0
-132 -221 0
-127 -222 0
-130 -224 0
-129 -219 0
-130 -223 0
-128 -219 0
-132 -223 0
-131 -220 0
-132 -222 0
-128 -223 0
-130 -220 0
-133 -219 0
-133 -223 0
-135 -176 0
-134 -182 0
-136 -176 0
-135 -179 0
-134 -179 0
-134 -181 0
-139 -181 0
-136 -178 0
-134 -180 0
-137 -180 0
-139 -177 0
-140 -178 0
-137 -177 0
-140 -176 0
-136 -194 0
-134 -191 0
-135 -196 0
-135 -195 0
-136 -191 0
-137 -192 0
-135 -191 0
-138 -194 0
-136 -196 0
-137 -190 0
-139 -191 0
-138 -190 0
-140 -192 0
-138 -192 0
-134 -226 0
-138 -225 0
-139 -231 0
-134 -231 0
-137 -231 0
-136 -231 0
-137 -230 0
-140 -228 0
-135 -228 0
-138 -228 0
-139 -227 0
-134 -230 0
-136 -225 0
-140 -226 0
-145 -192 0
-144 -191 0
-143 -194 0
-145 -194 0
-142 -190 0
-147 -193 0
-143 -195 0
-142 -193 0
-144 -193 0
-145 -196 0
-142 -195 0
-146 -193 0
-147 -196 0
-146 -191 0
-144 -211 0
-144 -215 0
-144 -217 0
-144 -214 0
-147 -214 0
-146 -213 0
-145 -213 0
-146 -216 0
-146 -211 0
-147 -215 0
-144 -216 0
-142 -217 0
-142 -211 0
-141 -216 0
-145 -236 0
-141 -238 0
-146 -235 0
-146 -238 0
-142 -232 0
-142 -234 0
-142 -236 0
-142 -235 0
-147 -232 0
-144 -236 0
-145 -233 0
-145 -234 0
-143 -238 0
-141 -237 0
-154 -159 0
-149 -155 0
-154 -160 0
-152 -157 0
-154 -158 0
-149 -159 0
-152 -161 0
-153 -159 0
-149 -157 0
-151 -158 0
-149 -156 0
-150 -156 0
-148 -159 0
-150 -159 0
-149 -182 0
-152 -181 0
-150 -176 0
-151 -180 0
-151 -182 0
-149 -176 0
-151 -177 0
-152 -182 0
-152 -179 0
-148 -179 0
-151 -176 0
-152 -177 0
-148 -178 0
-150 -177 0
-149 -185 0
-151 -186 0
-151 -188 0
-151 -183 0
-148 -187 0
-152 -187 0
-153 -185 0
-151 -189 0
-152 -189 0
-153 -186 0
-150 -185 0
-151 -184 0
-150 -189 0
-153 -183 0
-152 -194 0
-151 -190 0
-150 -193 0
-154 -192 0
-151 -191 0
-154 -196 0
-148 -195 0
-153 -190 0
-150 -194 0
-151 -195 0
-152 -193 0
-152 -192 0
-148 -196 0
-148 -194 0
-150 -207 0
-148 -205 0
-148 -210 0
-148 -209 0
-151 -206 0
-148 -206 0
-150 -208 0
-153 -209 0
-153 -210 0
-149 -207 0
-154 -208 0
-154 -209 0
-152 -208 0
-153 -208 0
-150 -233 0
-149 -238 0
-152 -232 0
-153 -238 0
-150 -235 0
-153 -236 0
-151 -235 0
-154 -233 0
-148 -237 0
-150 -238 0
-153 -235 0
-152 -237 0
-154 -237 0
-152 -233 0
-159 -189 0
-161 -183 0
-157 -183 0
-160 -186 0
-158 -187 0
-160 -184 0
-159 -187 0
-161 -186 0
-156 -184 0
-159 -184 0
-161 -189 0
-160 -185 0
-161 -187 0
-156 -187 0
-156 -201 0
-159 -197 0
-158 -201 0
-157 -202 0
-160 -197 0
-155 -201 0
-159 -199 0
-161 -202 0
-157 -200 0
-158 -203 0
-155 -199 0
-156 -199 0
-161 -200 0
-158 -202 0
-161 -231 0
-160 -225 0
-157 -225 0
-155 -229 0
-159 -225 0
-160 -227 0
-160 -231 0
-161 -229 0
-159 -226 0
-158 -227 0
-159 -230 0
-155 -230 0
-159 -228 0
-157 -228 0
-156 -234 0
-157 -236 0
-156 -236 0
-160 -237 0
-161 -233 0
-159 -237 0
-158 -236 0
-160 -238 0
-160 -236 0
-157 -234 0
-160 -235 0
-157 -235 0
-156 -235 0
-155 -232 0
-165 -173 0
-168 -170 0
-167 -171 0
-163 -170 0
-167 -174 0
-165 -172 0
-164 -172 0
-162 -170 0
-167 -172 0
-165 -175 0
-168 -174 0
-163 -169 0
-166 -172 0
-166 -171 0
-162 -187 0
-163 -184 0
-162 -186 0
-162 -185 0
-168 -187 0
-167 -187 0
-167 -189 0
-162 -189 0
-168 -188 0
-168 -189 0
-167 -186 0
-162 -183 0
-168 -183 0
-167 -188 0
-167 -196 0
-164 -192 0
-165 -192 0
-166 -192 0
-168 -193 0
-168 -192 0
-163 -196 0
-168 -195 0
-166 -194 0
-163 -193 0
-164 -196 0
-162 -192 0
-164 -193 0
-167 -191 0
-167 -225 0
-165 -229 0
-164 -229 0
-165 -231 0
-168 -227 0
-163 -227 0
-162 -231 0
-166 -225 0
-166 -228 0
-166 -227 0
-163 -225 0
-164 -226 0
-165 -225 0
-163 -229 0
-164 -233 0
-163 -234 0
-162 -237 0
-165 -235 0
-162 -234 0
-168 -235 0
-167 -237 0
-167 -236 0
-166 -238 0
-167 -235 0
-164 -234 0
-162 -233 0
-163 -235 0
-166 -237 0
-172 -198 0
-171 -203 0
-175 -202 0
-169 -200 0
-172 -197 0
-172 -200 0
-173 -201 0
-169 -198 0
-173 -199 0
-174 -203 0
-173 -200 0
-172 -202 0
-174 -197 0
-172 -199 0
-179 -205 0
-177 -210 0
-179 -207 0
-178 -208 0
-177 -209 0
-181 -207 0
-181 -204 0
-179 -208 0
-180 -206 0
-177 -208 0
-182 -210 0
-178 -206 0
-176 -205 0
-181 -209 0
-188 -202 0
-187 -200 0
-183 -199 0
-187 -202 0
-184 -198 0
-185 -201 0
-189 -201 0
-186 -203 0
-184 -203 0
-188 -197 0
-189 -197 0
-186 -202 0
-185 -199 0
-183 -203 0
-188 -215 0
-187 -213 0
-187 -215 0
-186 -212 0
-189 -213 0
-186 -216 0
-185 -212 0
-184 -214 0
-189 -214 0
-183 -211 0
-183 -214 0
-187 -217 0
-186 -217 0
-185 -216 0
-188 -224 0
-188 -222 0
-184 -221 0
-188 -219 0
-186 -221 0
-184 -220 0
-188 -220 0
-183 -222 0
-185 -223 0
-183 -224 0
-185 -218 0
-189 -218 0
-187 -223 0
-183 -223 0
-185 -235 0
-185 -237 0
-185 -233 0
-185 -236 0
-188 -233 0
-187 -236 0
-186 -235 0
-186 -236 0
-185 -232 0
-188 -236 0
-188 -235 0
-183 -233 0
-184 -234 0
-186 -238 0
-193 -206 0
-193 -207 0
-196 -206 0
-195 -208 0
-191 -205 0
-192 -204 0
-193 -204 0
-196 -209 0
-192 -207 0
-196 -210 0
-194 -209 0
-194 -205 0
-192 -206 0
-190 -204 0
-195 -222 0
-193 -222 0
-196 -218 0
-196 -224 0
-194 -221 0
-193 -224 0
-190 -223 0
-191 -219 0
-194 -219 0
-191 -223 0
-191 -218 0
-196 -222 0
-190 -222 0
-193 -220 0
-193 -244 0
-190 -242 0
-192 -245 0
-192 -242 0
-193 -241 0
-193 -245 0
-192 -244 0
-195 -244 0
-193 -240 0
-191 -240 0
-190 -244 0
-190 -239 0
-193 -239 0
-195 -245 0
-199 -221 0
-198 -221 0
-203 -220 0
-198 -220 0
-197 -222 0
-199 -223 0
-203 -221 0
-200 -218 0
-199 -222 0
-198 -222 0
-201 -223 0
-202 -223 0
-200 -221 0
-197 -221 0
-205 -211 0
-206 -211 0
-207 -214 0
-210 -214 0
-208 -217 0
-206 -213 0
-208 -214 0
-209 -215 0
-207 -212 0
-209 -212 0
-209 -211 0
-208 -216 0
-210 -213 0
-205 -214 0
-209 -227 0
-206 -227 0
-207 -228 0
-205 -229 0
-210 -231 0
-206 -229 0
-210 -228 0
-207 -226 0
-209 -226 0
-206 -226 0
-205 -228 0
-206 -231 0
-210 -230 0
-208 -226 0
-209 -244 0
-205 -239 0
-206 -244 0
-205 -244 0
-207 -240 0
-210 -243 0
-209 -245 0
-209 -240 0
-208 -243 0
-204 -239 0
-208 -245 0
-206 -243 0
-204 -244 0
-204 -241 0
-211 -221 0
-213 -219 0
-217 -222 0
-212 -218 0
-212 -222 0
-216 -223 0
-215 -219 0
-212 -223 0
-216 -220 0
-212 -221 0
-211 -223 0
-214 -220 0
-213 -222 0
-215 -221 0
-216 -229 0
-217 -226 0
-216 -226 0
-214 -227 0
-214 -230 0
-217 -229 0
-217 -228 0
-214 -225 0
-216 -230 0
-212 -229 0
-217 -230 0
-212 -227 0
-215 -231 0
-216 -225 0
-224 -226 0
-222 -231 0
-218 -228 0
-224 -225 0
-224 -230 0
-223 -225 0
-223 -227 0
-222 -229 0
-220 -226 0
-221 -228 0
-224 -229 0
-221 -230 0
-220 -227 0
-220 -229 0
